; Benchmark for LTL-sketching problem
(set-logic QF_UF)
(set-info :status unknown)
(declare-fun z_1_0_0 () Bool)
(declare-fun z_0_0_0 () Bool)
(declare-fun z_1_1_0 () Bool)
(declare-fun z_0_1_0 () Bool)
(declare-fun z_1_2_0 () Bool)
(declare-fun z_0_2_0 () Bool)
(declare-fun z_1_3_0 () Bool)
(declare-fun z_0_3_0 () Bool)
(declare-fun z_1_4_0 () Bool)
(declare-fun z_0_4_0 () Bool)
(declare-fun z_1_5_0 () Bool)
(declare-fun z_0_5_0 () Bool)
(declare-fun z_1_6_0 () Bool)
(declare-fun z_0_6_0 () Bool)
(declare-fun z_1_7_0 () Bool)
(declare-fun z_0_7_0 () Bool)
(declare-fun z_1_8_0 () Bool)
(declare-fun z_0_8_0 () Bool)
(declare-fun z_1_9_0 () Bool)
(declare-fun z_0_9_0 () Bool)
(declare-fun z_0_10_1 () Bool)
(declare-fun z_1_10_0 () Bool)
(declare-fun z_0_10_0 () Bool)
(declare-fun z_0_10_2 () Bool)
(declare-fun z_1_10_1 () Bool)
(declare-fun z_0_10_3 () Bool)
(declare-fun z_1_10_2 () Bool)
(declare-fun z_0_10_4 () Bool)
(declare-fun z_1_10_3 () Bool)
(declare-fun z_0_10_5 () Bool)
(declare-fun z_1_10_4 () Bool)
(declare-fun z_0_10_6 () Bool)
(declare-fun z_1_10_5 () Bool)
(declare-fun z_1_10_6 () Bool)
(declare-fun z_0_11_1 () Bool)
(declare-fun z_1_11_0 () Bool)
(declare-fun z_0_11_0 () Bool)
(declare-fun z_0_11_2 () Bool)
(declare-fun z_1_11_1 () Bool)
(declare-fun z_0_11_3 () Bool)
(declare-fun z_1_11_2 () Bool)
(declare-fun z_0_11_4 () Bool)
(declare-fun z_1_11_3 () Bool)
(declare-fun z_0_11_5 () Bool)
(declare-fun z_1_11_4 () Bool)
(declare-fun z_0_11_6 () Bool)
(declare-fun z_1_11_5 () Bool)
(declare-fun z_0_11_7 () Bool)
(declare-fun z_1_11_6 () Bool)
(declare-fun z_0_11_8 () Bool)
(declare-fun z_1_11_7 () Bool)
(declare-fun z_0_11_9 () Bool)
(declare-fun z_1_11_8 () Bool)
(declare-fun z_0_11_10 () Bool)
(declare-fun z_1_11_9 () Bool)
(declare-fun z_0_11_11 () Bool)
(declare-fun z_1_11_10 () Bool)
(declare-fun z_1_11_11 () Bool)
(declare-fun z_0_12_1 () Bool)
(declare-fun z_1_12_0 () Bool)
(declare-fun z_0_12_0 () Bool)
(declare-fun z_0_12_2 () Bool)
(declare-fun z_1_12_1 () Bool)
(declare-fun z_0_12_3 () Bool)
(declare-fun z_1_12_2 () Bool)
(declare-fun z_0_12_4 () Bool)
(declare-fun z_1_12_3 () Bool)
(declare-fun z_0_12_5 () Bool)
(declare-fun z_1_12_4 () Bool)
(declare-fun z_0_12_6 () Bool)
(declare-fun z_1_12_5 () Bool)
(declare-fun z_0_12_7 () Bool)
(declare-fun z_1_12_6 () Bool)
(declare-fun z_0_12_8 () Bool)
(declare-fun z_1_12_7 () Bool)
(declare-fun z_0_12_9 () Bool)
(declare-fun z_1_12_8 () Bool)
(declare-fun z_0_12_10 () Bool)
(declare-fun z_1_12_9 () Bool)
(declare-fun z_1_12_10 () Bool)
(declare-fun z_0_13_1 () Bool)
(declare-fun z_1_13_0 () Bool)
(declare-fun z_0_13_0 () Bool)
(declare-fun z_0_13_2 () Bool)
(declare-fun z_1_13_1 () Bool)
(declare-fun z_0_13_3 () Bool)
(declare-fun z_1_13_2 () Bool)
(declare-fun z_0_13_4 () Bool)
(declare-fun z_1_13_3 () Bool)
(declare-fun z_0_13_5 () Bool)
(declare-fun z_1_13_4 () Bool)
(declare-fun z_0_13_6 () Bool)
(declare-fun z_1_13_5 () Bool)
(declare-fun z_0_13_7 () Bool)
(declare-fun z_1_13_6 () Bool)
(declare-fun z_1_13_7 () Bool)
(declare-fun z_0_14_1 () Bool)
(declare-fun z_1_14_0 () Bool)
(declare-fun z_0_14_0 () Bool)
(declare-fun z_0_14_2 () Bool)
(declare-fun z_1_14_1 () Bool)
(declare-fun z_0_14_3 () Bool)
(declare-fun z_1_14_2 () Bool)
(declare-fun z_0_14_4 () Bool)
(declare-fun z_1_14_3 () Bool)
(declare-fun z_0_14_5 () Bool)
(declare-fun z_1_14_4 () Bool)
(declare-fun z_0_14_6 () Bool)
(declare-fun z_1_14_5 () Bool)
(declare-fun z_0_14_7 () Bool)
(declare-fun z_1_14_6 () Bool)
(declare-fun z_0_14_8 () Bool)
(declare-fun z_1_14_7 () Bool)
(declare-fun z_1_14_8 () Bool)
(declare-fun z_0_15_1 () Bool)
(declare-fun z_1_15_0 () Bool)
(declare-fun z_0_15_0 () Bool)
(declare-fun z_0_15_2 () Bool)
(declare-fun z_1_15_1 () Bool)
(declare-fun z_0_15_3 () Bool)
(declare-fun z_1_15_2 () Bool)
(declare-fun z_0_15_4 () Bool)
(declare-fun z_1_15_3 () Bool)
(declare-fun z_0_15_5 () Bool)
(declare-fun z_1_15_4 () Bool)
(declare-fun z_1_15_5 () Bool)
(declare-fun z_0_16_1 () Bool)
(declare-fun z_1_16_0 () Bool)
(declare-fun z_0_16_0 () Bool)
(declare-fun z_0_16_2 () Bool)
(declare-fun z_1_16_1 () Bool)
(declare-fun z_0_16_3 () Bool)
(declare-fun z_1_16_2 () Bool)
(declare-fun z_0_16_4 () Bool)
(declare-fun z_1_16_3 () Bool)
(declare-fun z_0_16_5 () Bool)
(declare-fun z_1_16_4 () Bool)
(declare-fun z_0_16_6 () Bool)
(declare-fun z_1_16_5 () Bool)
(declare-fun z_1_16_6 () Bool)
(declare-fun z_0_17_1 () Bool)
(declare-fun z_1_17_0 () Bool)
(declare-fun z_0_17_0 () Bool)
(declare-fun z_0_17_2 () Bool)
(declare-fun z_1_17_1 () Bool)
(declare-fun z_0_17_3 () Bool)
(declare-fun z_1_17_2 () Bool)
(declare-fun z_0_17_4 () Bool)
(declare-fun z_1_17_3 () Bool)
(declare-fun z_0_17_5 () Bool)
(declare-fun z_1_17_4 () Bool)
(declare-fun z_0_17_6 () Bool)
(declare-fun z_1_17_5 () Bool)
(declare-fun z_1_17_6 () Bool)
(declare-fun z_0_18_1 () Bool)
(declare-fun z_1_18_0 () Bool)
(declare-fun z_0_18_0 () Bool)
(declare-fun z_0_18_2 () Bool)
(declare-fun z_1_18_1 () Bool)
(declare-fun z_0_18_3 () Bool)
(declare-fun z_1_18_2 () Bool)
(declare-fun z_0_18_4 () Bool)
(declare-fun z_1_18_3 () Bool)
(declare-fun z_0_18_5 () Bool)
(declare-fun z_1_18_4 () Bool)
(declare-fun z_0_18_6 () Bool)
(declare-fun z_1_18_5 () Bool)
(declare-fun z_0_18_7 () Bool)
(declare-fun z_1_18_6 () Bool)
(declare-fun z_0_18_8 () Bool)
(declare-fun z_1_18_7 () Bool)
(declare-fun z_1_18_8 () Bool)
(declare-fun z_0_19_1 () Bool)
(declare-fun z_1_19_0 () Bool)
(declare-fun z_0_19_0 () Bool)
(declare-fun z_0_19_2 () Bool)
(declare-fun z_1_19_1 () Bool)
(declare-fun z_0_19_3 () Bool)
(declare-fun z_1_19_2 () Bool)
(declare-fun z_0_19_4 () Bool)
(declare-fun z_1_19_3 () Bool)
(declare-fun z_0_19_5 () Bool)
(declare-fun z_1_19_4 () Bool)
(declare-fun z_0_19_6 () Bool)
(declare-fun z_1_19_5 () Bool)
(declare-fun z_0_19_7 () Bool)
(declare-fun z_1_19_6 () Bool)
(declare-fun z_0_19_8 () Bool)
(declare-fun z_1_19_7 () Bool)
(declare-fun z_0_19_9 () Bool)
(declare-fun z_1_19_8 () Bool)
(declare-fun z_0_19_10 () Bool)
(declare-fun z_1_19_9 () Bool)
(declare-fun z_1_19_10 () Bool)
(declare-fun z_2_0_0 () Bool)
(declare-fun z_2_1_0 () Bool)
(declare-fun z_2_2_0 () Bool)
(declare-fun z_2_3_0 () Bool)
(declare-fun z_2_4_0 () Bool)
(declare-fun z_2_5_0 () Bool)
(declare-fun z_2_6_0 () Bool)
(declare-fun z_2_7_0 () Bool)
(declare-fun z_2_8_0 () Bool)
(declare-fun z_2_9_0 () Bool)
(declare-fun z_2_10_0 () Bool)
(declare-fun z_2_10_1 () Bool)
(declare-fun z_2_10_2 () Bool)
(declare-fun z_2_10_3 () Bool)
(declare-fun z_2_10_4 () Bool)
(declare-fun z_2_10_5 () Bool)
(declare-fun z_2_10_6 () Bool)
(declare-fun z_2_11_0 () Bool)
(declare-fun z_2_11_1 () Bool)
(declare-fun z_2_11_2 () Bool)
(declare-fun z_2_11_3 () Bool)
(declare-fun z_2_11_4 () Bool)
(declare-fun z_2_11_5 () Bool)
(declare-fun z_2_11_6 () Bool)
(declare-fun z_2_11_7 () Bool)
(declare-fun z_2_11_8 () Bool)
(declare-fun z_2_11_9 () Bool)
(declare-fun z_2_11_10 () Bool)
(declare-fun z_2_11_11 () Bool)
(declare-fun z_2_12_0 () Bool)
(declare-fun z_2_12_1 () Bool)
(declare-fun z_2_12_2 () Bool)
(declare-fun z_2_12_3 () Bool)
(declare-fun z_2_12_4 () Bool)
(declare-fun z_2_12_5 () Bool)
(declare-fun z_2_12_6 () Bool)
(declare-fun z_2_12_7 () Bool)
(declare-fun z_2_12_8 () Bool)
(declare-fun z_2_12_9 () Bool)
(declare-fun z_2_12_10 () Bool)
(declare-fun z_2_13_0 () Bool)
(declare-fun z_2_13_1 () Bool)
(declare-fun z_2_13_2 () Bool)
(declare-fun z_2_13_3 () Bool)
(declare-fun z_2_13_4 () Bool)
(declare-fun z_2_13_5 () Bool)
(declare-fun z_2_13_6 () Bool)
(declare-fun z_2_13_7 () Bool)
(declare-fun z_2_14_0 () Bool)
(declare-fun z_2_14_1 () Bool)
(declare-fun z_2_14_2 () Bool)
(declare-fun z_2_14_3 () Bool)
(declare-fun z_2_14_4 () Bool)
(declare-fun z_2_14_5 () Bool)
(declare-fun z_2_14_6 () Bool)
(declare-fun z_2_14_7 () Bool)
(declare-fun z_2_14_8 () Bool)
(declare-fun z_2_15_0 () Bool)
(declare-fun z_2_15_1 () Bool)
(declare-fun z_2_15_2 () Bool)
(declare-fun z_2_15_3 () Bool)
(declare-fun z_2_15_4 () Bool)
(declare-fun z_2_15_5 () Bool)
(declare-fun z_2_16_0 () Bool)
(declare-fun z_2_16_1 () Bool)
(declare-fun z_2_16_2 () Bool)
(declare-fun z_2_16_3 () Bool)
(declare-fun z_2_16_4 () Bool)
(declare-fun z_2_16_5 () Bool)
(declare-fun z_2_16_6 () Bool)
(declare-fun z_2_17_0 () Bool)
(declare-fun z_2_17_1 () Bool)
(declare-fun z_2_17_2 () Bool)
(declare-fun z_2_17_3 () Bool)
(declare-fun z_2_17_4 () Bool)
(declare-fun z_2_17_5 () Bool)
(declare-fun z_2_17_6 () Bool)
(declare-fun z_2_18_0 () Bool)
(declare-fun z_2_18_1 () Bool)
(declare-fun z_2_18_2 () Bool)
(declare-fun z_2_18_3 () Bool)
(declare-fun z_2_18_4 () Bool)
(declare-fun z_2_18_5 () Bool)
(declare-fun z_2_18_6 () Bool)
(declare-fun z_2_18_7 () Bool)
(declare-fun z_2_18_8 () Bool)
(declare-fun z_2_19_0 () Bool)
(declare-fun z_2_19_1 () Bool)
(declare-fun z_2_19_2 () Bool)
(declare-fun z_2_19_3 () Bool)
(declare-fun z_2_19_4 () Bool)
(declare-fun z_2_19_5 () Bool)
(declare-fun z_2_19_6 () Bool)
(declare-fun z_2_19_7 () Bool)
(declare-fun z_2_19_8 () Bool)
(declare-fun z_2_19_9 () Bool)
(declare-fun z_2_19_10 () Bool)
(assert
 (= z_0_0_0 (and z_1_0_0)))
(assert
 (= z_0_1_0 (and z_1_1_0)))
(assert
 (= z_0_2_0 (and z_1_2_0)))
(assert
 (= z_0_3_0 (and z_1_3_0)))
(assert
 (= z_0_4_0 (and z_1_4_0)))
(assert
 (= z_0_5_0 (and z_1_5_0)))
(assert
 (= z_0_6_0 (and z_1_6_0)))
(assert
 (= z_0_7_0 (and z_1_7_0)))
(assert
 (= z_0_8_0 (and z_1_8_0)))
(assert
 (= z_0_9_0 (and z_1_9_0)))
(assert
 (= z_0_10_0 (and z_1_10_0 z_0_10_1)))
(assert
 (= z_0_10_1 (and z_1_10_1 z_0_10_2)))
(assert
 (= z_0_10_2 (and z_1_10_2 z_0_10_3)))
(assert
 (= z_0_10_3 (and z_1_10_3 z_0_10_4)))
(assert
 (= z_0_10_4 (and z_1_10_4 z_0_10_5)))
(assert
 (= z_0_10_5 (and z_1_10_5 z_0_10_6)))
(assert
 (= z_0_10_6 (and z_1_10_2 z_1_10_3 z_1_10_4 z_1_10_5 z_1_10_6)))
(assert
 (= z_0_11_0 (and z_1_11_0 z_0_11_1)))
(assert
 (= z_0_11_1 (and z_1_11_1 z_0_11_2)))
(assert
 (= z_0_11_2 (and z_1_11_2 z_0_11_3)))
(assert
 (= z_0_11_3 (and z_1_11_3 z_0_11_4)))
(assert
 (= z_0_11_4 (and z_1_11_4 z_0_11_5)))
(assert
 (= z_0_11_5 (and z_1_11_5 z_0_11_6)))
(assert
 (= z_0_11_6 (and z_1_11_6 z_0_11_7)))
(assert
 (= z_0_11_7 (and z_1_11_7 z_0_11_8)))
(assert
 (= z_0_11_8 (and z_1_11_8 z_0_11_9)))
(assert
 (= z_0_11_9 (and z_1_11_9 z_0_11_10)))
(assert
 (= z_0_11_10 (and z_1_11_10 z_0_11_11)))
(assert
 (= z_0_11_11 (and z_1_11_6 z_1_11_7 z_1_11_8 z_1_11_9 z_1_11_10 z_1_11_11)))
(assert
 (= z_0_12_0 (and z_1_12_0 z_0_12_1)))
(assert
 (= z_0_12_1 (and z_1_12_1 z_0_12_2)))
(assert
 (= z_0_12_2 (and z_1_12_2 z_0_12_3)))
(assert
 (= z_0_12_3 (and z_1_12_3 z_0_12_4)))
(assert
 (= z_0_12_4 (and z_1_12_4 z_0_12_5)))
(assert
 (= z_0_12_5 (and z_1_12_5 z_0_12_6)))
(assert
 (= z_0_12_6 (and z_1_12_6 z_0_12_7)))
(assert
 (= z_0_12_7 (and z_1_12_7 z_0_12_8)))
(assert
 (= z_0_12_8 (and z_1_12_8 z_0_12_9)))
(assert
 (= z_0_12_9 (and z_1_12_9 z_0_12_10)))
(assert
 (= z_0_12_10 (and z_1_12_6 z_1_12_7 z_1_12_8 z_1_12_9 z_1_12_10)))
(assert
 (= z_0_13_0 (and z_1_13_0 z_0_13_1)))
(assert
 (= z_0_13_1 (and z_1_13_1 z_0_13_2)))
(assert
 (= z_0_13_2 (and z_1_13_2 z_0_13_3)))
(assert
 (= z_0_13_3 (and z_1_13_3 z_0_13_4)))
(assert
 (= z_0_13_4 (and z_1_13_4 z_0_13_5)))
(assert
 (= z_0_13_5 (and z_1_13_5 z_0_13_6)))
(assert
 (= z_0_13_6 (and z_1_13_6 z_0_13_7)))
(assert
 (= z_0_13_7 (and z_1_13_3 z_1_13_4 z_1_13_5 z_1_13_6 z_1_13_7)))
(assert
 (= z_0_14_0 (and z_1_14_0 z_0_14_1)))
(assert
 (= z_0_14_1 (and z_1_14_1 z_0_14_2)))
(assert
 (= z_0_14_2 (and z_1_14_2 z_0_14_3)))
(assert
 (= z_0_14_3 (and z_1_14_3 z_0_14_4)))
(assert
 (= z_0_14_4 (and z_1_14_4 z_0_14_5)))
(assert
 (= z_0_14_5 (and z_1_14_5 z_0_14_6)))
(assert
 (= z_0_14_6 (and z_1_14_6 z_0_14_7)))
(assert
 (= z_0_14_7 (and z_1_14_7 z_0_14_8)))
(assert
 (= z_0_14_8 (and z_1_14_4 z_1_14_5 z_1_14_6 z_1_14_7 z_1_14_8)))
(assert
 (= z_0_15_0 (and z_1_15_0 z_0_15_1)))
(assert
 (= z_0_15_1 (and z_1_15_1 z_0_15_2)))
(assert
 (= z_0_15_2 (and z_1_15_2 z_0_15_3)))
(assert
 (= z_0_15_3 (and z_1_15_3 z_0_15_4)))
(assert
 (= z_0_15_4 (and z_1_15_4 z_0_15_5)))
(assert
 (= z_0_15_5 (and z_1_15_1 z_1_15_2 z_1_15_3 z_1_15_4 z_1_15_5)))
(assert
 (= z_0_16_0 (and z_1_16_0 z_0_16_1)))
(assert
 (= z_0_16_1 (and z_1_16_1 z_0_16_2)))
(assert
 (= z_0_16_2 (and z_1_16_2 z_0_16_3)))
(assert
 (= z_0_16_3 (and z_1_16_3 z_0_16_4)))
(assert
 (= z_0_16_4 (and z_1_16_4 z_0_16_5)))
(assert
 (= z_0_16_5 (and z_1_16_5 z_0_16_6)))
(assert
 (= z_0_16_6 (and z_1_16_3 z_1_16_4 z_1_16_5 z_1_16_6)))
(assert
 (= z_0_17_0 (and z_1_17_0 z_0_17_1)))
(assert
 (= z_0_17_1 (and z_1_17_1 z_0_17_2)))
(assert
 (= z_0_17_2 (and z_1_17_2 z_0_17_3)))
(assert
 (= z_0_17_3 (and z_1_17_3 z_0_17_4)))
(assert
 (= z_0_17_4 (and z_1_17_4 z_0_17_5)))
(assert
 (= z_0_17_5 (and z_1_17_5 z_0_17_6)))
(assert
 (= z_0_17_6 (and z_1_17_3 z_1_17_4 z_1_17_5 z_1_17_6)))
(assert
 (= z_0_18_0 (and z_1_18_0 z_0_18_1)))
(assert
 (= z_0_18_1 (and z_1_18_1 z_0_18_2)))
(assert
 (= z_0_18_2 (and z_1_18_2 z_0_18_3)))
(assert
 (= z_0_18_3 (and z_1_18_3 z_0_18_4)))
(assert
 (= z_0_18_4 (and z_1_18_4 z_0_18_5)))
(assert
 (= z_0_18_5 (and z_1_18_5 z_0_18_6)))
(assert
 (= z_0_18_6 (and z_1_18_6 z_0_18_7)))
(assert
 (= z_0_18_7 (and z_1_18_7 z_0_18_8)))
(assert
 (= z_0_18_8 (and z_1_18_5 z_1_18_6 z_1_18_7 z_1_18_8)))
(assert
 (= z_0_19_0 (and z_1_19_0 z_0_19_1)))
(assert
 (= z_0_19_1 (and z_1_19_1 z_0_19_2)))
(assert
 (= z_0_19_2 (and z_1_19_2 z_0_19_3)))
(assert
 (= z_0_19_3 (and z_1_19_3 z_0_19_4)))
(assert
 (= z_0_19_4 (and z_1_19_4 z_0_19_5)))
(assert
 (= z_0_19_5 (and z_1_19_5 z_0_19_6)))
(assert
 (= z_0_19_6 (and z_1_19_6 z_0_19_7)))
(assert
 (= z_0_19_7 (and z_1_19_7 z_0_19_8)))
(assert
 (= z_0_19_8 (and z_1_19_8 z_0_19_9)))
(assert
 (= z_0_19_9 (and z_1_19_9 z_0_19_10)))
(assert
 (= z_0_19_10 (and z_1_19_5 z_1_19_6 z_1_19_7 z_1_19_8 z_1_19_9 z_1_19_10)))
(assert
 (= z_1_0_0 (not z_2_0_0)))
(assert
 (= z_1_1_0 (not z_2_1_0)))
(assert
 (= z_1_2_0 (not z_2_2_0)))
(assert
 (= z_1_3_0 (not z_2_3_0)))
(assert
 (= z_1_4_0 (not z_2_4_0)))
(assert
 (= z_1_5_0 (not z_2_5_0)))
(assert
 (= z_1_6_0 (not z_2_6_0)))
(assert
 (= z_1_7_0 (not z_2_7_0)))
(assert
 (= z_1_8_0 (not z_2_8_0)))
(assert
 (= z_1_9_0 (not z_2_9_0)))
(assert
 (= z_1_10_0 (not z_2_10_0)))
(assert
 (= z_1_10_1 (not z_2_10_1)))
(assert
 (= z_1_10_2 (not z_2_10_2)))
(assert
 (= z_1_10_3 (not z_2_10_3)))
(assert
 (= z_1_10_4 (not z_2_10_4)))
(assert
 (= z_1_10_5 (not z_2_10_5)))
(assert
 (= z_1_10_6 (not z_2_10_6)))
(assert
 (= z_1_11_0 (not z_2_11_0)))
(assert
 (= z_1_11_1 (not z_2_11_1)))
(assert
 (= z_1_11_2 (not z_2_11_2)))
(assert
 (= z_1_11_3 (not z_2_11_3)))
(assert
 (= z_1_11_4 (not z_2_11_4)))
(assert
 (= z_1_11_5 (not z_2_11_5)))
(assert
 (= z_1_11_6 (not z_2_11_6)))
(assert
 (= z_1_11_7 (not z_2_11_7)))
(assert
 (= z_1_11_8 (not z_2_11_8)))
(assert
 (= z_1_11_9 (not z_2_11_9)))
(assert
 (= z_1_11_10 (not z_2_11_10)))
(assert
 (= z_1_11_11 (not z_2_11_11)))
(assert
 (= z_1_12_0 (not z_2_12_0)))
(assert
 (= z_1_12_1 (not z_2_12_1)))
(assert
 (= z_1_12_2 (not z_2_12_2)))
(assert
 (= z_1_12_3 (not z_2_12_3)))
(assert
 (= z_1_12_4 (not z_2_12_4)))
(assert
 (= z_1_12_5 (not z_2_12_5)))
(assert
 (= z_1_12_6 (not z_2_12_6)))
(assert
 (= z_1_12_7 (not z_2_12_7)))
(assert
 (= z_1_12_8 (not z_2_12_8)))
(assert
 (= z_1_12_9 (not z_2_12_9)))
(assert
 (= z_1_12_10 (not z_2_12_10)))
(assert
 (= z_1_13_0 (not z_2_13_0)))
(assert
 (= z_1_13_1 (not z_2_13_1)))
(assert
 (= z_1_13_2 (not z_2_13_2)))
(assert
 (= z_1_13_3 (not z_2_13_3)))
(assert
 (= z_1_13_4 (not z_2_13_4)))
(assert
 (= z_1_13_5 (not z_2_13_5)))
(assert
 (= z_1_13_6 (not z_2_13_6)))
(assert
 (= z_1_13_7 (not z_2_13_7)))
(assert
 (= z_1_14_0 (not z_2_14_0)))
(assert
 (= z_1_14_1 (not z_2_14_1)))
(assert
 (= z_1_14_2 (not z_2_14_2)))
(assert
 (= z_1_14_3 (not z_2_14_3)))
(assert
 (= z_1_14_4 (not z_2_14_4)))
(assert
 (= z_1_14_5 (not z_2_14_5)))
(assert
 (= z_1_14_6 (not z_2_14_6)))
(assert
 (= z_1_14_7 (not z_2_14_7)))
(assert
 (= z_1_14_8 (not z_2_14_8)))
(assert
 (= z_1_15_0 (not z_2_15_0)))
(assert
 (= z_1_15_1 (not z_2_15_1)))
(assert
 (= z_1_15_2 (not z_2_15_2)))
(assert
 (= z_1_15_3 (not z_2_15_3)))
(assert
 (= z_1_15_4 (not z_2_15_4)))
(assert
 (= z_1_15_5 (not z_2_15_5)))
(assert
 (= z_1_16_0 (not z_2_16_0)))
(assert
 (= z_1_16_1 (not z_2_16_1)))
(assert
 (= z_1_16_2 (not z_2_16_2)))
(assert
 (= z_1_16_3 (not z_2_16_3)))
(assert
 (= z_1_16_4 (not z_2_16_4)))
(assert
 (= z_1_16_5 (not z_2_16_5)))
(assert
 (= z_1_16_6 (not z_2_16_6)))
(assert
 (= z_1_17_0 (not z_2_17_0)))
(assert
 (= z_1_17_1 (not z_2_17_1)))
(assert
 (= z_1_17_2 (not z_2_17_2)))
(assert
 (= z_1_17_3 (not z_2_17_3)))
(assert
 (= z_1_17_4 (not z_2_17_4)))
(assert
 (= z_1_17_5 (not z_2_17_5)))
(assert
 (= z_1_17_6 (not z_2_17_6)))
(assert
 (= z_1_18_0 (not z_2_18_0)))
(assert
 (= z_1_18_1 (not z_2_18_1)))
(assert
 (= z_1_18_2 (not z_2_18_2)))
(assert
 (= z_1_18_3 (not z_2_18_3)))
(assert
 (= z_1_18_4 (not z_2_18_4)))
(assert
 (= z_1_18_5 (not z_2_18_5)))
(assert
 (= z_1_18_6 (not z_2_18_6)))
(assert
 (= z_1_18_7 (not z_2_18_7)))
(assert
 (= z_1_18_8 (not z_2_18_8)))
(assert
 (= z_1_19_0 (not z_2_19_0)))
(assert
 (= z_1_19_1 (not z_2_19_1)))
(assert
 (= z_1_19_2 (not z_2_19_2)))
(assert
 (= z_1_19_3 (not z_2_19_3)))
(assert
 (= z_1_19_4 (not z_2_19_4)))
(assert
 (= z_1_19_5 (not z_2_19_5)))
(assert
 (= z_1_19_6 (not z_2_19_6)))
(assert
 (= z_1_19_7 (not z_2_19_7)))
(assert
 (= z_1_19_8 (not z_2_19_8)))
(assert
 (= z_1_19_9 (not z_2_19_9)))
(assert
 (= z_1_19_10 (not z_2_19_10)))
(assert
 (= z_0_0_0 true))
(assert
 (= z_0_1_0 true))
(assert
 (= z_0_2_0 true))
(assert
 (= z_0_3_0 true))
(assert
 (= z_0_4_0 true))
(assert
 (= z_0_5_0 true))
(assert
 (= z_0_6_0 true))
(assert
 (= z_0_7_0 true))
(assert
 (= z_0_8_0 true))
(assert
 (= z_0_9_0 true))
(assert
 (= z_0_10_0 false))
(assert
 (= z_0_11_0 false))
(assert
 (= z_0_12_0 false))
(assert
 (= z_0_13_0 false))
(assert
 (= z_0_14_0 false))
(assert
 (= z_0_15_0 false))
(assert
 (= z_0_16_0 false))
(assert
 (= z_0_17_0 false))
(assert
 (= z_0_18_0 false))
(assert
 (= z_0_19_0 false))
(assert
 (let (($x936 (= z_2_0_0 z_2_1_0)))
 (and $x936)))
(assert
 (let (($x938 (= z_2_0_0 z_2_2_0)))
 (and $x938)))
(assert
 (let (($x940 (= z_2_0_0 z_2_3_0)))
 (and $x940)))
(assert
 (let (($x942 (= z_2_0_0 z_2_4_0)))
 (and $x942)))
(assert
 (let (($x944 (= z_2_0_0 z_2_5_0)))
 (and $x944)))
(assert
 (let (($x946 (= z_2_0_0 z_2_6_0)))
 (and $x946)))
(assert
 (let (($x948 (= z_2_0_0 z_2_7_0)))
 (and $x948)))
(assert
 (let (($x950 (= z_2_0_0 z_2_8_0)))
 (and $x950)))
(assert
 (let (($x952 (= z_2_0_0 z_2_9_0)))
 (and $x952)))
(assert
 (let (($x954 (= z_2_1_0 z_2_2_0)))
 (and $x954)))
(assert
 (let (($x956 (= z_2_1_0 z_2_3_0)))
 (and $x956)))
(assert
 (let (($x958 (= z_2_1_0 z_2_4_0)))
 (and $x958)))
(assert
 (let (($x960 (= z_2_1_0 z_2_5_0)))
 (and $x960)))
(assert
 (let (($x962 (= z_2_1_0 z_2_6_0)))
 (and $x962)))
(assert
 (let (($x964 (= z_2_1_0 z_2_7_0)))
 (and $x964)))
(assert
 (let (($x966 (= z_2_1_0 z_2_8_0)))
 (and $x966)))
(assert
 (let (($x968 (= z_2_1_0 z_2_9_0)))
 (and $x968)))
(assert
 (let (($x970 (= z_2_2_0 z_2_3_0)))
 (and $x970)))
(assert
 (let (($x972 (= z_2_2_0 z_2_4_0)))
 (and $x972)))
(assert
 (let (($x974 (= z_2_2_0 z_2_5_0)))
 (and $x974)))
(assert
 (let (($x976 (= z_2_2_0 z_2_6_0)))
 (and $x976)))
(assert
 (let (($x978 (= z_2_2_0 z_2_7_0)))
 (and $x978)))
(assert
 (let (($x980 (= z_2_2_0 z_2_8_0)))
 (and $x980)))
(assert
 (let (($x982 (= z_2_2_0 z_2_9_0)))
 (and $x982)))
(assert
 (let (($x984 (= z_2_3_0 z_2_4_0)))
 (and $x984)))
(assert
 (let (($x986 (= z_2_3_0 z_2_5_0)))
 (and $x986)))
(assert
 (let (($x988 (= z_2_3_0 z_2_6_0)))
 (and $x988)))
(assert
 (let (($x990 (= z_2_3_0 z_2_7_0)))
 (and $x990)))
(assert
 (let (($x992 (= z_2_3_0 z_2_8_0)))
 (and $x992)))
(assert
 (let (($x994 (= z_2_3_0 z_2_9_0)))
 (and $x994)))
(assert
 (let (($x996 (= z_2_4_0 z_2_5_0)))
 (and $x996)))
(assert
 (let (($x998 (= z_2_4_0 z_2_6_0)))
 (and $x998)))
(assert
 (let (($x1000 (= z_2_4_0 z_2_7_0)))
 (and $x1000)))
(assert
 (let (($x1002 (= z_2_4_0 z_2_8_0)))
 (and $x1002)))
(assert
 (let (($x1004 (= z_2_4_0 z_2_9_0)))
 (and $x1004)))
(assert
 (let (($x1006 (= z_2_5_0 z_2_6_0)))
 (and $x1006)))
(assert
 (let (($x1008 (= z_2_5_0 z_2_7_0)))
 (and $x1008)))
(assert
 (let (($x1010 (= z_2_5_0 z_2_8_0)))
 (and $x1010)))
(assert
 (let (($x1012 (= z_2_5_0 z_2_9_0)))
 (and $x1012)))
(assert
 (let (($x1014 (= z_2_6_0 z_2_7_0)))
 (and $x1014)))
(assert
 (let (($x1016 (= z_2_6_0 z_2_8_0)))
 (and $x1016)))
(assert
 (let (($x1018 (= z_2_6_0 z_2_9_0)))
 (and $x1018)))
(assert
 (let (($x1020 (= z_2_7_0 z_2_8_0)))
 (and $x1020)))
(assert
 (let (($x1022 (= z_2_7_0 z_2_9_0)))
 (and $x1022)))
(assert
 (let (($x1024 (= z_2_8_0 z_2_9_0)))
 (and $x1024)))
(assert
 (let (($x1026 (= z_2_10_0 z_2_13_1)))
 (and $x1026)))
(assert
 (let (($x1028 (= z_2_10_1 z_2_13_2)))
 (and $x1028)))
(assert
 (let (($x1030 (= z_2_10_2 z_2_13_3)))
 (and $x1030)))
(assert
 (let (($x1032 (= z_2_10_3 z_2_13_4)))
 (and $x1032)))
(assert
 (let (($x1034 (= z_2_10_4 z_2_13_5)))
 (and $x1034)))
(assert
 (let (($x1036 (= z_2_10_5 z_2_13_6)))
 (and $x1036)))
(assert
 (let (($x1038 (= z_2_10_6 z_2_13_7)))
 (and $x1038)))
(assert
 (let (($x1040 (= z_2_10_2 z_2_14_6)))
 (and $x1040)))
(assert
 (let (($x1042 (= z_2_10_3 z_2_14_7)))
 (and $x1042)))
(assert
 (let (($x1044 (= z_2_10_4 z_2_14_8)))
 (and $x1044)))
(assert
 (let (($x1046 (= z_2_10_5 z_2_14_4)))
 (and $x1046)))
(assert
 (let (($x1048 (= z_2_10_6 z_2_14_5)))
 (and $x1048)))
(assert
 (let (($x1050 (= z_2_13_3 z_2_14_6)))
 (and $x1050)))
(assert
 (let (($x1052 (= z_2_13_4 z_2_14_7)))
 (and $x1052)))
(assert
 (let (($x1054 (= z_2_13_5 z_2_14_8)))
 (and $x1054)))
(assert
 (let (($x1056 (= z_2_13_6 z_2_14_4)))
 (and $x1056)))
(assert
 (let (($x1058 (= z_2_13_7 z_2_14_5)))
 (and $x1058)))
(assert
 (let (($x1060 (= z_2_16_3 z_2_17_6)))
 (and $x1060)))
(assert
 (let (($x1062 (= z_2_16_4 z_2_17_3)))
 (and $x1062)))
(assert
 (let (($x1064 (= z_2_16_5 z_2_17_4)))
 (and $x1064)))
(assert
 (let (($x1066 (= z_2_16_6 z_2_17_5)))
 (and $x1066)))
(assert
 (let (($x1068 (= z_2_16_3 z_2_18_7)))
 (and $x1068)))
(assert
 (let (($x1070 (= z_2_16_4 z_2_18_8)))
 (and $x1070)))
(assert
 (let (($x1072 (= z_2_16_5 z_2_18_5)))
 (and $x1072)))
(assert
 (let (($x1074 (= z_2_16_6 z_2_18_6)))
 (and $x1074)))
(assert
 (let (($x1076 (= z_2_17_3 z_2_18_8)))
 (and $x1076)))
(assert
 (let (($x1078 (= z_2_17_4 z_2_18_5)))
 (and $x1078)))
(assert
 (let (($x1080 (= z_2_17_5 z_2_18_6)))
 (and $x1080)))
(assert
 (let (($x1082 (= z_2_17_6 z_2_18_7)))
 (and $x1082)))
(check-sat)

